50
2476480

100049 737
100097 861
100053 409
100005 728
100033 845
100065 804
100062 685
100051 641
100100 2
100038 627
100061 506
100045 848
100074 889
100027 342
100064 250
100017 748
100036 334
100017 721
100096 892
100012 65
100079 196
100032 940
100068 582
100090 228
100077 245
100018 823
100039 991
100012 146
100093 823
100009 557
100087 459
100042 94
100060 83
100071 328
100012 897
100045 521
100055 956
100040 502
100078 112
100081 309
100026 565
100070 299
100061 724
100056 128
100066 561
100033 341
100007 835
100070 945
100001 554
100011 209
